db/inputs/821615368258122204113694254371171217129.smt2
(set-logic QF_FP)
(declare-const x0 (_ FloatingPoint 8 24))
(declare-const x1 (_ FloatingPoint 8 24))
(declare-const x2 (_ FloatingPoint 8 24))
(declare-const x3 (_ FloatingPoint 8 24))
(declare-const x4 (_ FloatingPoint 8 24))
(declare-const x5 (_ FloatingPoint 8 24))
(declare-const x6 (_ FloatingPoint 8 24))
(assert (fp.eq (fp.neg (fp.neg (fp.mul RNE x5 x0))) (fp.div RNE (fp.div RNE (fp.mul RNE x5 x6) (fp.mul RNE x4 x1)) (fp.neg (fp.sub RNE x4 x5)))))
(check-sat)
