db/data/821615368258122204113694254371171217129.z3.out
sat
-------------------
10.715248165
